(declare-fun temp1868_1 () (_ BitVec 64))
(declare-fun var342198 () (_ BitVec 64))
(declare-fun temp1868_3 () (_ BitVec 64))
(declare-fun temp1868_2 () (_ BitVec 64))
(declare-fun temp1868_5 () (_ BitVec 64))
(declare-fun temp1868_4 () (_ BitVec 64))
(declare-fun var1586267 () (_ BitVec 64))
(declare-fun temp1868_6 () (_ BitVec 64))
(declare-fun var1586268 () (_ BitVec 64))
(declare-fun var1586345 () (_ BitVec 64))
(declare-fun temp1868_8 () (_ BitVec 64))
(declare-fun temp1868_7 () (_ BitVec 64))
(declare-fun temp1868_10 () (_ BitVec 64))
(declare-fun temp1868_9 () (_ BitVec 64))
(declare-fun var3355739 () (_ BitVec 64))
(declare-fun temp1868_11 () (_ BitVec 64))
(declare-fun var3355740 () (_ BitVec 64))
(declare-fun var3355817 () (_ BitVec 64))
(declare-fun temp1868_13 () (_ BitVec 64))
(declare-fun temp1868_12 () (_ BitVec 64))
(declare-fun var4139873 () (_ BitVec 64))
(declare-fun temp1868_14 () (_ BitVec 64))
(declare-fun var4204657 () (_ BitVec 64))
(declare-fun temp1868_15 () (_ BitVec 64))
(declare-fun var4335729 () (_ BitVec 64))
(declare-fun temp1868_17 () (_ BitVec 64))
(declare-fun temp1868_16 () (_ BitVec 64))
(declare-fun temp1868_19 () (_ BitVec 64))
(declare-fun temp1868_18 () (_ BitVec 64))
(declare-fun var5321819 () (_ BitVec 64))
(declare-fun temp1868_20 () (_ BitVec 64))
(declare-fun var5321820 () (_ BitVec 64))
(declare-fun var5321897 () (_ BitVec 64))
(declare-fun temp1868_22 () (_ BitVec 64))
(declare-fun temp1868_21 () (_ BitVec 64))
(declare-fun var6237025 () (_ BitVec 64))
(declare-fun temp1868_23 () (_ BitVec 64))
(declare-fun var6301809 () (_ BitVec 64))
(declare-fun var5322224 () (_ BitVec 64))
(declare-fun temp1868_24 () (_ BitVec 64))
(declare-fun var5322225 () (_ BitVec 64))
(declare-fun var6501948 () (_ BitVec 64))
(declare-fun var1586516 () (_ BitVec 64))
(declare-fun temp1868_25 () (_ BitVec 64))
(declare-fun var1586517 () (_ BitVec 64))
(declare-fun temp1868_26 () (_ BitVec 64))
(assert (= temp1868_1 #x0000000000000000))
(assert (= var342198 temp1868_1))
(assert (= temp1868_3 #x0000000000000000))
(assert (= temp1868_2 temp1868_3))
(assert (= temp1868_5 #x0000000000000001))
(assert (= temp1868_4 temp1868_5))
(assert (= var1586267 var342198))
(assert (= temp1868_6 #x0000000000000000))
(assert (= var1586268 temp1868_6))
(assert (= var1586345 var1586268))
(assert (= temp1868_8 #x0000000000000000))
(assert (= temp1868_7 temp1868_8))
(assert (= temp1868_10 #x0000000000000001))
(assert (= temp1868_9 temp1868_10))
(assert (= var3355739 var1586267))
(assert (= temp1868_11 #x0000000000000000))
(assert (= var3355740 temp1868_11))
(assert (= var3355817 var3355740))
(assert (= temp1868_13 #x0000000000000001))
(assert (= temp1868_12 temp1868_13))
(assert (= var4139873 var3355739))
(assert (= temp1868_14 #x0000000000000000))
(assert (= var4204657 temp1868_14))
(assert (= temp1868_15 #x0000000000000000))
(assert (= var4335729 temp1868_15))
(assert (= temp1868_17 #x0000000000000000))
(assert (= temp1868_16 temp1868_17))
(assert (= temp1868_19 #x0000000000000001))
(assert (= temp1868_18 temp1868_19))
(assert (= var5321819 var1586267))
(assert (= temp1868_20 #x0000000000000000))
(assert (= var5321820 temp1868_20))
(assert (= var5321897 var5321820))
(assert (= temp1868_22 #x0000000000000001))
(assert (= temp1868_21 temp1868_22))
(assert (= var6237025 var5321819))
(assert (= temp1868_23 #x0000000000000000))
(assert (= var6301809 temp1868_23))
(assert (= var5322224 var5321897))
(assert (= temp1868_24 #x0000000000000000))
(assert (= var5322225
   (ite (distinct var5322224 temp1868_24) #x0000000000000001 #x0000000000000000)))
(assert (= var6501948 var5322225))
(assert (= var1586516 var1586345))
(assert (= temp1868_25 #x0000000000000000))
(assert (= var1586517
   (ite (= var1586516 temp1868_25) #x0000000000000001 #x0000000000000000)))
(assert (= temp1868_26 #x0000000000000001))
(assert (= var1586517 temp1868_26))
(model-add temp1868_1 () (_ BitVec 64) #x0000000000000000)
(model-add var342198 () (_ BitVec 64) #x0000000000000000)
(model-add temp1868_3 () (_ BitVec 64) #x0000000000000000)
(model-add temp1868_2 () (_ BitVec 64) #x0000000000000000)
(model-add temp1868_5 () (_ BitVec 64) #x0000000000000001)
(model-add temp1868_4 () (_ BitVec 64) #x0000000000000001)
(model-add var1586267 () (_ BitVec 64) #x0000000000000000)
(model-add temp1868_6 () (_ BitVec 64) #x0000000000000000)
(model-add var1586268 () (_ BitVec 64) #x0000000000000000)
(model-add var1586345 () (_ BitVec 64) #x0000000000000000)
(model-add temp1868_8 () (_ BitVec 64) #x0000000000000000)
(model-add temp1868_7 () (_ BitVec 64) #x0000000000000000)
(model-add temp1868_10 () (_ BitVec 64) #x0000000000000001)
(model-add temp1868_9 () (_ BitVec 64) #x0000000000000001)
(model-add var3355739 () (_ BitVec 64) #x0000000000000000)
(model-add temp1868_11 () (_ BitVec 64) #x0000000000000000)
(model-add var3355740 () (_ BitVec 64) #x0000000000000000)
(model-add var3355817 () (_ BitVec 64) #x0000000000000000)
(model-add temp1868_13 () (_ BitVec 64) #x0000000000000001)
(model-add temp1868_12 () (_ BitVec 64) #x0000000000000001)
(model-add var4139873 () (_ BitVec 64) #x0000000000000000)
(model-add temp1868_14 () (_ BitVec 64) #x0000000000000000)
(model-add var4204657 () (_ BitVec 64) #x0000000000000000)
(model-add temp1868_15 () (_ BitVec 64) #x0000000000000000)
(model-add var4335729 () (_ BitVec 64) #x0000000000000000)
(model-add temp1868_17 () (_ BitVec 64) #x0000000000000000)
(model-add temp1868_16 () (_ BitVec 64) #x0000000000000000)
(model-add temp1868_19 () (_ BitVec 64) #x0000000000000001)
(model-add temp1868_18 () (_ BitVec 64) #x0000000000000001)
(model-add var5321819 () (_ BitVec 64) #x0000000000000000)
(model-add temp1868_20 () (_ BitVec 64) #x0000000000000000)
(model-add var5321820 () (_ BitVec 64) #x0000000000000000)
(model-add var5321897 () (_ BitVec 64) #x0000000000000000)
(model-add temp1868_22 () (_ BitVec 64) #x0000000000000001)
(model-add temp1868_21 () (_ BitVec 64) #x0000000000000001)
(model-add var6237025 () (_ BitVec 64) #x0000000000000000)
(model-add temp1868_23 () (_ BitVec 64) #x0000000000000000)
(model-add var6301809 () (_ BitVec 64) #x0000000000000000)
(model-add var5322224 () (_ BitVec 64) #x0000000000000000)
(model-add temp1868_24 () (_ BitVec 64) #x0000000000000000)
(model-add var5322225 () (_ BitVec 64) #x0000000000000000)
(model-add var6501948 () (_ BitVec 64) #x0000000000000000)
(model-add var1586516 () (_ BitVec 64) #x0000000000000000)
(model-add temp1868_25 () (_ BitVec 64) #x0000000000000000)
(model-add var1586517 () (_ BitVec 64) #x0000000000000001)
(model-add temp1868_26 () (_ BitVec 64) #x0000000000000001)




